100 5
25 1000
10
7
13
19
26
3
5
9
16
16
12
19
23
20
8
19
2
12
17
9
11
18
29
3
6
17
16
16
9
21
27
23
11
14
8
5
8
16
31
9
5
5
7
18
16
1
27
36
30
13
10
9
14
18
2
6
7
18
28
3
13
19
10
9
20
25
25
36
6
5
15
25
9
8
18
13
14
3
23
6
26
16
11
7
41
35
26
9
15
3
1
2
22
27
20
11
12
10
9
17
35 35 0 1000 0 0
41 49 707 848 10 2
35 17 143 282 10 3
55 45 527 584 10 3
55 20 678 801 10 3
15 30 34 209 10 1
25 30 415 514 10 2
20 50 331 410 10 3
10 43 404 481 10 1
55 60 400 497 10 2
30 60 577 632 10 1
20 65 206 325 10 2
50 35 228 345 10 1
30 25 690 827 10 1
15 10 32 243 10 1
30 5 175 300 10 3
10 20 272 373 10 2
5 30 733 870 10 2
20 40 377 434 10 1
15 60 269 378 10 2
45 65 581 666 10 3
45 20 214 331 10 3
45 10 409 494 10 2
55 5 206 325 10 1
65 35 704 847 10 1
65 20 817 956 10 1
45 30 588 667 10 3
35 40 104 255 10 1
41 37 114 255 10 1
64 42 190 313 10 1
40 60 259 354 10 1
31 52 152 275 10 3
35 69 660 777 10 2
53 52 45 200 10 1
65 55 529 614 10 1
63 65 686 813 10 1
2 60 41 208 10 1
20 20 606 693 10 2
5 5 302 405 10 1
60 12 33 224 10 2
40 25 360 437 10 1
42 7 396 511 10 2
24 12 25 172 10 3
23 3 620 705 10 2
11 14 233 340 10 1
6 38 29 189 10 1
2 48 515 628 10 3
8 56 85 250 10 3
13 52 773 906 10 2
6 68 501 540 10 3
47 47 547 642 10 1
49 58 348 453 10 3
27 43 174 299 10 3
37 31 414 489 10 2
57 29 641 734 10 2
63 23 620 739 10 2
53 12 585 692 10 2
32 12 421 530 10 1
36 26 849 980 10 3
21 24 17 229 10 1
17 34 721 862 10 1
12 24 290 377 10 1
24 58 163 302 10 1
27 69 34 191 10 2
15 77 214 333 10 3
62 77 49 188 10 1
49 73 592 693 10 3
67 5 294 401 10 2
56 39 637 752 10 3
37 47 162 293 10 1
37 56 788 968 10 1
57 68 268 367 10 2
47 16 31 208 10 2
44 17 308 399 10 2
46 13 681 802 10 3
49 11 236 345 10 3
49 42 290 373 10 1
53 43 817 952 10 3
61 52 384 499 10 2
57 48 388 465 10 3
56 37 839 968 10 2
55 54 411 456 10 1
15 47 162 289 10 1
14 37 96 249 10 2
11 31 436 511 10 2
16 22 376 461 10 1
4 18 388 465 10 1
28 18 420 447 10 1
26 52 279 388 10 1
26 35 755 920 10 3
31 67 392 487 10 3
15 19 739 866 10 3
22 22 18 181 10 3
18 24 811 969 10 1
26 27 436 503 10 2
25 24 92 231 10 2
22 27 607 690 10 3
25 21 612 673 10 1
19 21 183 306 10 2
20 26 333 432 10 3
18 18 798 965 10 3
40 32 0 1000 5 4
31 9 0 1000 5 4
11 20 0 1000 5 4
27 71 0 1000 5 4
24 50 0 1000 5 4
1 0 0 0 0
0 1 0 0 0
1 0 0 0 0
1 0 0 0 0
0 0 0 0 0
1 0 0 0 0
0 0 0 0 1
0 0 0 0 0
0 0 0 1 0
0 0 0 0 0
0 0 0 1 0
0 0 0 0 0
0 0 0 0 0
0 0 0 0 0
0 1 0 0 0
0 0 1 0 0
0 0 1 0 0
0 0 0 0 0
0 0 0 0 1
0 0 0 1 0
1 0 0 0 0
0 1 0 0 0
0 0 0 0 0
0 0 0 0 0
0 0 0 0 0
1 0 0 0 0
0 0 0 0 0
0 0 0 0 0
0 0 0 0 0
0 0 0 0 0
0 0 0 0 1
0 0 0 1 0
0 0 0 0 0
0 0 0 0 0
0 0 0 0 0
0 0 0 0 0
0 0 1 0 0
0 0 0 0 0
1 0 0 0 0
0 0 0 0 0
0 1 0 0 0
0 1 0 0 0
0 1 0 0 0
0 0 0 0 0
0 0 0 0 0
0 0 0 0 1
0 0 0 0 1
0 0 0 0 1
0 0 0 1 0
0 0 0 0 0
0 0 0 1 0
0 0 0 0 1
1 0 0 0 0
1 0 0 0 0
1 0 0 0 0
0 1 0 0 0
0 0 0 0 0
1 0 0 0 0
0 0 0 0 0
0 0 0 0 0
0 0 0 0 0
0 0 0 0 0
0 0 0 1 0
0 0 0 1 0
0 0 0 0 0
0 0 0 1 0
0 1 0 0 0
1 0 0 0 0
0 0 0 0 0
0 0 0 0 0
0 0 0 1 0
1 0 0 0 0
0 1 0 0 0
0 1 0 0 0
0 1 0 0 0
0 0 0 0 0
1 0 0 0 0
1 0 0 0 0
1 0 0 0 0
1 0 0 0 0
0 0 0 0 0
0 0 0 0 0
0 0 0 0 1
0 0 1 0 0
0 0 0 0 0
0 0 0 0 0
0 0 0 0 0
0 0 0 0 0
1 0 0 0 0
0 0 0 1 0
0 0 1 0 0
0 0 1 0 0
0 0 0 0 0
1 0 0 0 0
0 0 1 0 0
0 0 1 0 0
0 0 0 0 0
0 0 1 0 0
0 0 1 0 0
0 0 1 0 0
